nbNodes = 12;
nbVehi = 10;
nbServi = 5;

e = 
 [|    0,  477,   58,   89,  227,  222,  266,  251,   17,  129,  257,    0,
 |    0,  360,  292,  370,  332,  100,  313,  276,  130,  287,   24,    0,
 |    0,  160,  173,   50,  297,  418,  217,  262,  165,  427,  208,    0,
 |    0,  120,  142,  442,  311,  179,  306,  176,  299,  204,  405,    0,
 |    0,  203,  453,  184,  165,  183,  191,  443,  234,  155,  186,    0,
 |];

l = 
 [| 480, 523, 109, 135, 284, 268, 317, 282,  71, 187, 300, 480,
 | 480, 395, 343, 418, 380, 149, 357, 326, 178, 346,  56, 480,
 | 480, 199, 209,  90, 331, 476, 275, 293, 211, 471, 253, 480,
 | 480, 162, 177, 473, 347, 214, 349, 234, 349, 250, 447, 480,
 | 480, 243, 492, 241, 223, 237, 232, 481, 269, 192, 224, 480,
 |];

a = 
 [|  1,  1,  0,  0,  0,
 |  0,  1,  1,  0,  0,
 |  0,  0,  1,  1,  0,
 |  1,  0,  1,  1,  0,
 |  0,  0,  0,  0,  1,
 |  1,  1,  1,  0,  0,
 |  1,  1,  1,  1,  0,
 |  1,  0,  1,  1,  1,
 |  0,  1,  1,  1,  1,
 |  1,  1,  1,  1,  1,
 |];

p = array3d(1..nbNodes,1..nbVehi,1..nbServi,
[  0,  0,  0,  0,  0,	  0,  0,  0,  0,  0,	  0,  0,  0,  0,  0,	  0,  0,  0,  0,  0,	  0,  0,  0,  0,  0,	  0,  0,  0,  0,  0,	  0,  0,  0,  0,  0,	  0,  0,  0,  0,  0,	  0,  0,  0,  0,  0,	  0,  0,  0,  0,  0,	
 16, 24, 16, 12, 23,	 12, 20, 14, 18, 23,	 15, 22,  8, 24,  7,	 24, 29,  9, 22,  7,	  8, 12, 28, 25, 26,	 14, 18, 24, 15, 11,	 28, 28,  5, 14, 10,	 23, 23, 27,  7, 13,	 23, 19,  5, 26, 14,	  9, 22, 13, 16, 14,	
 17, 19, 21, 17, 16,	 19, 27,  5, 13, 12,	 11, 11, 12, 13, 22,	 17,  6, 15, 17, 11,	 25, 10, 25, 27,  8,	  9,  6, 25, 19, 17,	 11,  8,  8, 27, 21,	 20, 18, 18, 22, 26,	 27,  5,  9,  9, 13,	 28, 23, 16, 15, 10,	
 22, 10, 15, 20,  7,	 18, 26,  8, 15, 18,	 23, 21, 21, 26, 20,	 12, 18,  8, 27, 10,	  6, 24, 10, 12, 28,	 18, 10, 22,  5, 20,	 27, 24, 25, 15, 16,	 27,  5, 13,  8, 16,	 28, 28,  7, 19, 24,	 23, 27, 15, 26, 24,	
 20,  5, 21, 26, 12,	 19, 16, 18, 11, 18,	  8, 11, 13,  6, 23,	 26,  5, 23,  9,  8,	  9,  9,  8, 14, 24,	 28,  7, 23, 13,  5,	 19,  5,  5, 10, 26,	 13, 25, 13, 28,  8,	 26,  6, 16, 11,  9,	  9,  8, 10, 28, 14,	
 15,  9, 19, 19, 18,	 15, 19, 22,  8, 29,	 23, 22, 29, 25, 28,	 26, 10, 23, 11,  8,	 28,  9, 12, 15, 18,	 16, 21, 23, 21, 19,	  7,  7, 26, 23, 21,	 16,  8, 10,  9, 13,	  9, 29,  6,  8, 24,	 29,  6,  7, 24, 14,	
 10, 24, 21, 17, 11,	  9,  6, 28, 27, 22,	 19,  6, 26, 15, 27,	 17, 27,  7, 24,  6,	 16,  5,  7, 19, 11,	 26, 20, 14, 28, 16,	 24, 11, 10, 17, 25,	 17, 21, 26, 15, 20,	 19, 29, 23, 17, 17,	 22,  7, 14, 25, 26,	
 17, 13, 29, 19, 29,	 10, 17, 19, 21, 18,	  5, 17, 24, 12, 29,	 19, 24, 22, 18, 11,	 14,  9, 13,  8, 21,	 25, 27, 23, 11, 24,	 22, 23,  9, 21, 14,	  8, 28, 26, 22, 19,	 16, 24,  9, 12,  7,	  8, 27, 28, 28, 15,	
 10, 12, 19, 18, 17,	 12, 15, 15,  6, 21,	 11, 23, 14, 16, 16,	 25, 19, 16, 23, 14,	  7, 10,  8, 11, 17,	 12, 15, 16, 11, 15,	 28, 18, 22, 19,  8,	 10, 27, 18, 22, 28,	  9, 28, 23, 20, 14,	  9, 15,  6, 22, 10,	
 15, 24, 15, 20,  6,	  5, 28, 18, 16, 11,	 28, 15, 26, 20, 29,	 29, 27, 28, 19, 21,	 26, 25, 20, 21, 15,	  6, 27, 27,  7, 19,	  7, 17, 14, 20, 10,	 15, 20,  8,  5,  6,	 16, 28, 18, 12, 20,	 18, 13, 20, 16, 27,	
 11, 15, 22, 26,  6,	  9, 28,  6,  8,  7,	 20, 10, 20,  6, 25,	 25, 18, 17,  5, 18,	 19, 18, 18,  7, 27,	  9, 22, 12, 24, 11,	 11,  7, 21,  5, 29,	 24,  9, 29, 25, 12,	  6, 18, 19, 23, 21,	 17, 20, 10, 29, 22,	
  0,  0,  0,  0,  0,	  0,  0,  0,  0,  0,	  0,  0,  0,  0,  0,	  0,  0,  0,  0,  0,	  0,  0,  0,  0,  0,	  0,  0,  0,  0,  0,	  0,  0,  0,  0,  0,	  0,  0,  0,  0,  0,	  0,  0,  0,  0,  0,	  0,  0,  0,  0,  0,	
]);

rs = 
[|true,true,true,true,true,
 |false,false,false,true,false,
 |true,false,false,false,false,
 |false,false,false,false,true,
 |false,false,false,true,false,
 |false,false,false,false,true,
 |false,false,false,true,false,
 |true,false,false,false,false,
 |false,true,false,false,false,
 |false,false,false,false,true,
 |false,true,false,false,false,
 |true,true,true,true,true,
 |];

d=[|0, 22, 14, 9, 26, 6, 8, 9, 26, 21, 24, 0, 
|22, 0, 36, 13, 41, 21, 15, 29, 43, 5, 30, 22, 
|14, 36, 0, 23, 20, 16, 21, 8, 25, 36, 28, 14, 
|9, 13, 23, 0, 30, 8, 2, 16, 34, 14, 22, 9, 
|26, 41, 20, 30, 0, 22, 28, 17, 46, 44, 16, 26, 
|6, 21, 16, 8, 22, 0, 6, 8, 33, 22, 17, 6, 
|8, 15, 21, 2, 28, 6, 0, 14, 34, 16, 20, 8, 
|9, 29, 8, 16, 17, 8, 14, 0, 30, 30, 20, 9, 
|26, 43, 25, 34, 46, 33, 34, 30, 0, 39, 50, 26, 
|21, 5, 36, 14, 44, 22, 16, 30, 39, 0, 34, 21, 
|24, 30, 28, 22, 16, 17, 20, 20, 50, 34, 0, 24, 
|0, 22, 14, 9, 26, 6, 8, 9, 26, 21, 24, 0, 
|];

%coord=[ (0,0), (-16,16), (12,-8), (-5,8), (25,8), (3,6), (-3,8), (9,0), (-6,-26), (-19,11), (14,20), (0,0), ];

